! Gamess input file generated by mol2mol.
 $CONTRL SCFTYP=RHF RUNTYP=GRADIENT MPLEVL=2 $END
 $SYSTEM MWORDS=500 MEMDDI=500 $END
-$CONTRL EXETYP=CHECK $END
 $CONTRL MAXIT=200 $END
-$STATPT OPTTOL=1.0E-5 $END
-$STATPT NSTEP=300 $END
-$DFT NTHE=36 NPHI=72 $END
 $SCF DIRSCF=.T. $END
 $BASIS GBASIS=N311 NGAUSS=6 NDFUNC=2 NPFUNC=2 DIFFSP=.T. DIFFS=.T. $END
 $GUESS GUESS=HUCKEL $END
 $DATA
--Cartesian coordinates with C1 symmetry as follows:
C1
 O   8.0   1.77808413   0.49196951  -4.66633515
 H   1.0   1.02266979  -0.06311638  -4.45684737
 H   1.0   1.40480626   1.36002041  -4.83898384
 O   8.0   0.45465464  -0.54905212  -2.11879546
 H   1.0   0.75543886  -0.75765279  -3.00686692
 H   1.0   0.66344951   0.38107298  -2.00077724
 $END
