! Gamess input file generated by mol2mol.
 $CONTRL SCFTYP=RHF RUNTYP=GRADIENT MPLEVL=2 $END
 $SYSTEM MWORDS=500 MEMDDI=500 $END
-$CONTRL EXETYP=CHECK $END
 $CONTRL MAXIT=200 $END
-$STATPT OPTTOL=1.0E-5 $END
-$STATPT NSTEP=300 $END
-$DFT NTHE=36 NPHI=72 $END
 $SCF DIRSCF=.T. $END
 $BASIS GBASIS=N311 NGAUSS=6 NDFUNC=2 NPFUNC=2 DIFFSP=.T. DIFFS=.T. $END
 $GUESS GUESS=HUCKEL $END
 $DATA
--Cartesian coordinates with C1 symmetry as follows:
C1
 O   8.0  -1.08051162   1.08388812   1.71142880
 H   1.0  -1.69603392   1.79479796   1.51548034
 H   1.0  -1.43937265   0.31641206   1.25881907
 O   8.0  -6.86917369   0.11716126   2.36708225
 H   1.0  -6.71399252   0.79099319   1.70035468
 H   1.0  -6.17702413  -0.53345225   2.22464858
 $END
