! Gamess input file generated by mol2mol.
 $CONTRL SCFTYP=RHF RUNTYP=GRADIENT MPLEVL=2 $END
 $SYSTEM MWORDS=500 MEMDDI=500 $END
-$CONTRL EXETYP=CHECK $END
 $CONTRL MAXIT=200 $END
-$STATPT OPTTOL=1.0E-5 $END
-$STATPT NSTEP=300 $END
-$DFT NTHE=36 NPHI=72 $END
 $SCF DIRSCF=.T. $END
 $BASIS GBASIS=N311 NGAUSS=6 NDFUNC=2 NPFUNC=2 DIFFSP=.T. DIFFS=.T. $END
 $GUESS GUESS=HUCKEL $END
 $DATA
--Cartesian coordinates with C1 symmetry as follows:
C1
 O   8.0   0.75947544   0.50770109  -2.00524781
 H   1.0   0.45679713   1.37824911  -2.27578113
 H   1.0  -0.04146780   0.02886444  -1.77751620
 O   8.0   2.07708859   4.51469745   0.56306249
 H   1.0   2.36594534   4.40625164  -0.34658447
 H   1.0   1.70719505   3.66235981   0.80669255
 $END
