! Gamess input file generated by mol2mol.
 $CONTRL SCFTYP=RHF RUNTYP=GRADIENT MPLEVL=2 $END
 $SYSTEM MWORDS=500 MEMDDI=500 $END
-$CONTRL EXETYP=CHECK $END
 $CONTRL MAXIT=200 $END
-$STATPT OPTTOL=1.0E-5 $END
-$STATPT NSTEP=300 $END
-$DFT NTHE=36 NPHI=72 $END
 $SCF DIRSCF=.T. $END
 $BASIS GBASIS=N311 NGAUSS=6 NDFUNC=2 NPFUNC=2 DIFFSP=.T. DIFFS=.T. $END
 $GUESS GUESS=HUCKEL $END
 $DATA
--Cartesian coordinates with C1 symmetry as follows:
C1
 O   8.0  -0.11573573  -5.17213375   5.29959128
 H   1.0  -0.10651120  -4.56585112   6.04456952
 H   1.0   0.31318062  -5.96766867   5.62487770
 O   8.0  -0.56488182  -4.57940466  11.07386456
 H   1.0   0.09472185  -5.12026568  11.51550769
 H   1.0  -0.09458939  -4.16272195  10.34732698
 $END
