! Gamess input file generated by mol2mol.
 $CONTRL SCFTYP=RHF RUNTYP=GRADIENT MPLEVL=2 $END
 $SYSTEM MWORDS=500 MEMDDI=500 $END
-$CONTRL EXETYP=CHECK $END
 $CONTRL MAXIT=200 $END
-$STATPT OPTTOL=1.0E-5 $END
-$STATPT NSTEP=300 $END
-$DFT NTHE=36 NPHI=72 $END
 $SCF DIRSCF=.T. $END
 $BASIS GBASIS=N311 NGAUSS=6 NDFUNC=2 NPFUNC=2 DIFFSP=.T. DIFFS=.T. $END
 $GUESS GUESS=HUCKEL $END
 $DATA
--Cartesian coordinates with C1 symmetry as follows:
C1
 O   8.0  -1.45714135   1.92452884  -3.85661351
 H   1.0  -1.45557797   2.40781488  -4.68672703
 H   1.0  -2.27992850   1.42890359  -3.86237651
 O   8.0  -1.18131351  -1.53987387  -2.94222919
 H   1.0  -0.53457198  -1.71305541  -2.25346955
 H   1.0  -2.03231716  -1.69664807  -2.52525084
 $END
