! Gamess input file generated by mol2mol.
 $CONTRL SCFTYP=RHF RUNTYP=GRADIENT MPLEVL=2 $END
 $SYSTEM MWORDS=500 MEMDDI=500 $END
-$CONTRL EXETYP=CHECK $END
 $CONTRL MAXIT=200 $END
-$STATPT OPTTOL=1.0E-5 $END
-$STATPT NSTEP=300 $END
-$DFT NTHE=36 NPHI=72 $END
 $SCF DIRSCF=.T. $END
 $BASIS GBASIS=N311 NGAUSS=6 NDFUNC=2 NPFUNC=2 DIFFSP=.T. DIFFS=.T. $END
 $GUESS GUESS=HUCKEL $END
 $DATA
--Cartesian coordinates with C1 symmetry as follows:
C1
 O   8.0  -3.78974460  -2.24866965  -2.29398781
 H   1.0  -4.50222393  -1.60544233  -2.25809741
 H   1.0  -4.21488008  -3.07249445  -2.54544125
 O   8.0  -2.94765848   0.16067783  -0.72428764
 H   1.0  -3.30855824   0.79784325  -1.34592088
 H   1.0  -2.23443160  -0.27112883  -1.20126428
 $END
