! Gamess input file generated by mol2mol.
 $CONTRL SCFTYP=RHF RUNTYP=GRADIENT MPLEVL=2 $END
 $SYSTEM MWORDS=500 MEMDDI=500 $END
-$CONTRL EXETYP=CHECK $END
 $CONTRL MAXIT=200 $END
-$STATPT OPTTOL=1.0E-5 $END
-$STATPT NSTEP=300 $END
-$DFT NTHE=36 NPHI=72 $END
 $SCF DIRSCF=.T. $END
 $BASIS GBASIS=N311 NGAUSS=6 NDFUNC=2 NPFUNC=2 DIFFSP=.T. DIFFS=.T. $END
 $GUESS GUESS=HUCKEL $END
 $DATA
--Cartesian coordinates with C1 symmetry as follows:
C1
 O   8.0  -4.31074485   6.13122571  -1.90546070
 H   1.0  -3.83997633   5.38760071  -2.29024006
 H   1.0  -3.87172810   6.90923093  -2.25848828
 O   8.0  -6.01241653   3.14728060   1.41546256
 H   1.0  -5.44096601   2.38402883   1.29906951
 H   1.0  -6.25468167   3.13341062   2.34485565
 $END
