! Gamess input file generated by mol2mol.
 $CONTRL SCFTYP=RHF RUNTYP=GRADIENT MPLEVL=2 $END
 $SYSTEM MWORDS=500 MEMDDI=500 $END
-$CONTRL EXETYP=CHECK $END
 $CONTRL MAXIT=200 $END
-$STATPT OPTTOL=1.0E-5 $END
-$STATPT NSTEP=300 $END
-$DFT NTHE=36 NPHI=72 $END
 $SCF DIRSCF=.T. $END
 $BASIS GBASIS=N311 NGAUSS=6 NDFUNC=2 NPFUNC=2 DIFFSP=.T. DIFFS=.T. $END
 $GUESS GUESS=HUCKEL $END
 $DATA
--Cartesian coordinates with C1 symmetry as follows:
C1
 O   8.0  -0.06722161   0.17857530  -0.42322735
 H   1.0  -0.17742668   0.38842833   0.50761789
 H   1.0   0.82062910  -0.18178586  -0.49043789
 O   8.0  -3.36960492   0.30730432  -1.77313411
 H   1.0  -4.30420546   0.29948772  -1.99475777
 H   1.0  -3.34201147   0.49256355  -0.83102269
 $END
