! Gamess input file generated by mol2mol.
 $CONTRL SCFTYP=RHF RUNTYP=GRADIENT MPLEVL=2 $END
 $SYSTEM MWORDS=500 MEMDDI=500 $END
-$CONTRL EXETYP=CHECK $END
 $CONTRL MAXIT=200 $END
-$STATPT OPTTOL=1.0E-5 $END
-$STATPT NSTEP=300 $END
-$DFT NTHE=36 NPHI=72 $END
 $SCF DIRSCF=.T. $END
 $BASIS GBASIS=N311 NGAUSS=6 NDFUNC=2 NPFUNC=2 DIFFSP=.T. DIFFS=.T. $END
 $GUESS GUESS=HUCKEL $END
 $DATA
--Cartesian coordinates with C1 symmetry as follows:
C1
 O   8.0  -0.52000137  -0.58955683   0.43581061
 H   1.0  -0.44187098   0.02944962   1.16614133
 H   1.0   0.33593695  -1.02288327   0.38833339
 O   8.0   0.18678666  -2.95745341  -1.96559617
 H   1.0   0.97747955  -3.47995109  -1.80920813
 H   1.0   0.11420550  -2.90174749  -2.92177875
 $END
