! Gamess input file generated by mol2mol.
 $CONTRL SCFTYP=RHF RUNTYP=GRADIENT MPLEVL=2 $END
 $SYSTEM MWORDS=500 MEMDDI=500 $END
-$CONTRL EXETYP=CHECK $END
 $CONTRL MAXIT=200 $END
-$STATPT OPTTOL=1.0E-5 $END
-$STATPT NSTEP=300 $END
-$DFT NTHE=36 NPHI=72 $END
 $SCF DIRSCF=.T. $END
 $BASIS GBASIS=N311 NGAUSS=6 NDFUNC=2 NPFUNC=2 DIFFSP=.T. DIFFS=.T. $END
 $GUESS GUESS=HUCKEL $END
 $DATA
--Cartesian coordinates with C1 symmetry as follows:
C1
 O   8.0   3.49674434  -0.67159947   1.48063526
 H   1.0   3.87549146   0.15405831   1.79287901
 H   1.0   4.23939728  -1.27860355   1.42897320
 O   8.0   6.04414129   0.02782050  -0.02625589
 H   1.0   6.66399236   0.45812854  -0.62062609
 H   1.0   5.76442916  -0.76336070  -0.49364196
 $END
