! Gamess input file generated by mol2mol.
 $CONTRL SCFTYP=RHF RUNTYP=GRADIENT MPLEVL=2 $END
 $SYSTEM MWORDS=500 MEMDDI=500 $END
-$CONTRL EXETYP=CHECK $END
 $CONTRL MAXIT=200 $END
-$STATPT OPTTOL=1.0E-5 $END
-$STATPT NSTEP=300 $END
-$DFT NTHE=36 NPHI=72 $END
 $SCF DIRSCF=.T. $END
 $BASIS GBASIS=N311 NGAUSS=6 NDFUNC=2 NPFUNC=2 DIFFSP=.T. DIFFS=.T. $END
 $GUESS GUESS=HUCKEL $END
 $DATA
--Cartesian coordinates with C1 symmetry as follows:
C1
 O   8.0   0.00364001  -0.01715541  -0.76943241
 H   1.0   0.14915302   0.12978312  -1.70745764
 H   1.0  -0.92673186   0.17793230  -0.63157276
 O   8.0  -1.84430342   1.49586290   1.34674308
 H   1.0  -1.24675757   1.68389841   0.61856872
 H   1.0  -2.70193341   1.80858647   1.04786003
 $END
