! Gamess input file generated by mol2mol.
 $CONTRL SCFTYP=RHF RUNTYP=GRADIENT MPLEVL=2 $END
 $SYSTEM MWORDS=500 MEMDDI=500 $END
-$CONTRL EXETYP=CHECK $END
 $CONTRL MAXIT=200 $END
-$STATPT OPTTOL=1.0E-5 $END
-$STATPT NSTEP=300 $END
-$DFT NTHE=36 NPHI=72 $END
 $SCF DIRSCF=.T. $END
 $BASIS GBASIS=N311 NGAUSS=6 NDFUNC=2 NPFUNC=2 DIFFSP=.T. DIFFS=.T. $END
 $GUESS GUESS=HUCKEL $END
 $DATA
--Cartesian coordinates with C1 symmetry as follows:
C1
 O   8.0  -1.28829092  -0.57819394   1.14835725
 H   1.0  -0.39025924  -0.82870706   0.91718937
 H   1.0  -1.19049876   0.18943258   1.71742888
 O   8.0  -3.61254725   3.27446755   3.03793181
 H   1.0  -3.81283212   2.63682926   3.72783012
 H   1.0  -2.91978886   2.86206368   2.51575830
 $END
