! Gamess input file generated by mol2mol.
 $CONTRL SCFTYP=RHF RUNTYP=GRADIENT MPLEVL=2 $END
 $SYSTEM MWORDS=500 MEMDDI=500 $END
-$CONTRL EXETYP=CHECK $END
 $CONTRL MAXIT=200 $END
-$STATPT OPTTOL=1.0E-5 $END
-$STATPT NSTEP=300 $END
-$DFT NTHE=36 NPHI=72 $END
 $SCF DIRSCF=.T. $END
 $BASIS GBASIS=N311 NGAUSS=6 NDFUNC=2 NPFUNC=2 DIFFSP=.T. DIFFS=.T. $END
 $GUESS GUESS=HUCKEL $END
 $DATA
--Cartesian coordinates with C1 symmetry as follows:
C1
 O   8.0   1.13861676  -2.61108365  -1.46681733
 H   1.0   2.08423516  -2.60217953  -1.63528946
 H   1.0   1.04747765  -3.01162138  -0.59853196
 O   8.0   3.87628076  -7.01146171  -1.50870823
 H   1.0   3.98727490  -7.87764753  -1.90878163
 H   1.0   3.85056423  -6.40022623  -2.24923923
 $END
