! Gamess input file generated by mol2mol.
 $CONTRL SCFTYP=RHF RUNTYP=GRADIENT MPLEVL=2 $END
 $SYSTEM MWORDS=500 MEMDDI=500 $END
-$CONTRL EXETYP=CHECK $END
 $CONTRL MAXIT=200 $END
-$STATPT OPTTOL=1.0E-5 $END
-$STATPT NSTEP=300 $END
-$DFT NTHE=36 NPHI=72 $END
 $SCF DIRSCF=.T. $END
 $BASIS GBASIS=N311 NGAUSS=6 NDFUNC=2 NPFUNC=2 DIFFSP=.T. DIFFS=.T. $END
 $GUESS GUESS=HUCKEL $END
 $DATA
--Cartesian coordinates with C1 symmetry as follows:
C1
 O   8.0  -1.19295656  -0.36016625   4.93683874
 H   1.0  -1.99734762   0.02781461   5.29050831
 H   1.0  -1.43031622  -1.26614275   4.72347690
 O   8.0   2.14176776  -1.94416981   5.18767149
 H   1.0   1.30604877  -1.49925570   5.34978720
 H   1.0   2.79675145  -1.24160651   5.18008953
 $END
