! Gamess input file generated by mol2mol.
 $CONTRL SCFTYP=RHF RUNTYP=GRADIENT MPLEVL=2 $END
 $SYSTEM MWORDS=500 MEMDDI=500 $END
-$CONTRL EXETYP=CHECK $END
 $CONTRL MAXIT=200 $END
-$STATPT OPTTOL=1.0E-5 $END
-$STATPT NSTEP=300 $END
-$DFT NTHE=36 NPHI=72 $END
 $SCF DIRSCF=.T. $END
 $BASIS GBASIS=N311 NGAUSS=6 NDFUNC=2 NPFUNC=2 DIFFSP=.T. DIFFS=.T. $END
 $GUESS GUESS=HUCKEL $END
 $DATA
--Cartesian coordinates with C1 symmetry as follows:
C1
 O   8.0  -0.86177346   3.34298139  -2.78751298
 H   1.0  -1.02924672   3.63922223  -1.88926448
 H   1.0  -0.22188504   2.63239099  -2.69662615
 O   8.0  -2.13735086  -0.96986573   0.15047524
 H   1.0  -3.07592549  -1.16482707   0.08945029
 H   1.0  -2.08827740  -0.01203292   0.20343188
 $END
