! Gamess input file generated by mol2mol.
 $CONTRL SCFTYP=RHF RUNTYP=GRADIENT MPLEVL=2 $END
 $SYSTEM MWORDS=500 MEMDDI=500 $END
-$CONTRL EXETYP=CHECK $END
 $CONTRL MAXIT=200 $END
-$STATPT OPTTOL=1.0E-5 $END
-$STATPT NSTEP=300 $END
-$DFT NTHE=36 NPHI=72 $END
 $SCF DIRSCF=.T. $END
 $BASIS GBASIS=N311 NGAUSS=6 NDFUNC=2 NPFUNC=2 DIFFSP=.T. DIFFS=.T. $END
 $GUESS GUESS=HUCKEL $END
 $DATA
--Cartesian coordinates with C1 symmetry as follows:
C1
 O   8.0   1.64785332  -1.36706682   2.38788128
 H   1.0   2.54051152  -1.05732223   2.21503476
 H   1.0   1.46444449  -1.09649299   3.29110179
 O   8.0   1.19482580   2.72803653   3.14536350
 H   1.0   0.54136765   2.49548062   2.48085880
 H   1.0   1.84758620   2.02453141   3.10485786
 $END
