! Gamess input file generated by mol2mol.
 $CONTRL SCFTYP=RHF RUNTYP=GRADIENT MPLEVL=2 $END
 $SYSTEM MWORDS=500 MEMDDI=500 $END
-$CONTRL EXETYP=CHECK $END
 $CONTRL MAXIT=200 $END
-$STATPT OPTTOL=1.0E-5 $END
-$STATPT NSTEP=300 $END
-$DFT NTHE=36 NPHI=72 $END
 $SCF DIRSCF=.T. $END
 $BASIS GBASIS=N311 NGAUSS=6 NDFUNC=2 NPFUNC=2 DIFFSP=.T. DIFFS=.T. $END
 $GUESS GUESS=HUCKEL $END
 $DATA
--Cartesian coordinates with C1 symmetry as follows:
C1
 O   8.0  -0.20739946  -0.25654401  -0.68195199
 H   1.0   0.70219710  -0.01578137  -0.87514555
 H   1.0  -0.37161703   0.09014937   0.19866858
 O   8.0   1.47277056   1.25147382   3.85410351
 H   1.0   0.68227236   0.74452100   3.65219327
 H   1.0   1.17865717   1.93275342   4.46403114
 $END
