! Gamess input file generated by mol2mol.
 $CONTRL SCFTYP=RHF RUNTYP=GRADIENT MPLEVL=2 $END
 $SYSTEM MWORDS=500 MEMDDI=500 $END
-$CONTRL EXETYP=CHECK $END
 $CONTRL MAXIT=200 $END
-$STATPT OPTTOL=1.0E-5 $END
-$STATPT NSTEP=300 $END
-$DFT NTHE=36 NPHI=72 $END
 $SCF DIRSCF=.T. $END
 $BASIS GBASIS=N311 NGAUSS=6 NDFUNC=2 NPFUNC=2 DIFFSP=.T. DIFFS=.T. $END
 $GUESS GUESS=HUCKEL $END
 $DATA
--Cartesian coordinates with C1 symmetry as follows:
C1
 O   8.0  -0.42543576  -0.01904238  -0.31455846
 H   1.0  -0.39906765   0.93201789  -0.18247747
 H   1.0  -0.97870321  -0.35072142   0.39715809
 O   8.0  -4.21858670  -2.00656940  -0.47728288
 H   1.0  -3.69354299  -1.34261273  -0.02324880
 H   1.0  -4.11728514  -1.80385644  -1.41071834
 $END
