! Gamess input file generated by mol2mol.
 $CONTRL SCFTYP=RHF RUNTYP=GRADIENT MPLEVL=2 $END
 $SYSTEM MWORDS=500 MEMDDI=500 $END
-$CONTRL EXETYP=CHECK $END
 $CONTRL MAXIT=200 $END
-$STATPT OPTTOL=1.0E-5 $END
-$STATPT NSTEP=300 $END
-$DFT NTHE=36 NPHI=72 $END
 $SCF DIRSCF=.T. $END
 $BASIS GBASIS=N311 NGAUSS=6 NDFUNC=2 NPFUNC=2 DIFFSP=.T. DIFFS=.T. $END
 $GUESS GUESS=HUCKEL $END
 $DATA
--Cartesian coordinates with C1 symmetry as follows:
C1
 O   8.0   0.34795794  -2.54109967   0.77632503
 H   1.0   0.86926755  -1.75301169   0.94898055
 H   1.0   0.97138210  -3.26843906   0.84686601
 O   8.0   0.10648984   1.85203815   0.35620244
 H   1.0   0.37725346   2.63626883  -0.12786947
 H   1.0  -0.52171626   1.41133933  -0.22155007
 $END
