! Gamess input file generated by mol2mol.
 $CONTRL SCFTYP=RHF RUNTYP=GRADIENT MPLEVL=2 $END
 $SYSTEM MWORDS=500 MEMDDI=500 $END
-$CONTRL EXETYP=CHECK $END
 $CONTRL MAXIT=200 $END
-$STATPT OPTTOL=1.0E-5 $END
-$STATPT NSTEP=300 $END
-$DFT NTHE=36 NPHI=72 $END
 $SCF DIRSCF=.T. $END
 $BASIS GBASIS=N311 NGAUSS=6 NDFUNC=2 NPFUNC=2 DIFFSP=.T. DIFFS=.T. $END
 $GUESS GUESS=HUCKEL $END
 $DATA
--Cartesian coordinates with C1 symmetry as follows:
C1
 O   8.0  -3.14594967   3.78914209   4.00130562
 H   1.0  -3.43771381   3.98991601   4.89417729
 H   1.0  -2.63022179   2.98329386   4.08668527
 O   8.0  -5.74156859   1.99757867   3.23199894
 H   1.0  -5.69051712   2.23961661   2.30384611
 H   1.0  -4.87381379   1.64297712   3.44155955
 $END
