! Gamess input file generated by mol2mol.
 $CONTRL SCFTYP=RHF RUNTYP=GRADIENT MPLEVL=2 $END
 $SYSTEM MWORDS=500 MEMDDI=500 $END
-$CONTRL EXETYP=CHECK $END
 $CONTRL MAXIT=200 $END
-$STATPT OPTTOL=1.0E-5 $END
-$STATPT NSTEP=300 $END
-$DFT NTHE=36 NPHI=72 $END
 $SCF DIRSCF=.T. $END
 $BASIS GBASIS=N311 NGAUSS=6 NDFUNC=2 NPFUNC=2 DIFFSP=.T. DIFFS=.T. $END
 $GUESS GUESS=HUCKEL $END
 $DATA
--Cartesian coordinates with C1 symmetry as follows:
C1
 O   8.0   0.00611966  -0.00109946   0.02172517
 H   1.0  -0.89429281   0.06370298   0.34992380
 H   1.0   0.08252701   0.70325043  -0.62689602
 O   8.0  -2.17671533  -0.23872676  -4.29796378
 H   1.0  -1.79794816   0.30075151  -4.99664464
 H   1.0  -3.07502165   0.08592317  -4.19645280
 $END
