! Gamess input file generated by mol2mol.
 $CONTRL SCFTYP=RHF RUNTYP=GRADIENT MPLEVL=2 $END
 $SYSTEM MWORDS=500 MEMDDI=500 $END
-$CONTRL EXETYP=CHECK $END
 $CONTRL MAXIT=200 $END
-$STATPT OPTTOL=1.0E-5 $END
-$STATPT NSTEP=300 $END
-$DFT NTHE=36 NPHI=72 $END
 $SCF DIRSCF=.T. $END
 $BASIS GBASIS=N311 NGAUSS=6 NDFUNC=2 NPFUNC=2 DIFFSP=.T. DIFFS=.T. $END
 $GUESS GUESS=HUCKEL $END
 $DATA
--Cartesian coordinates with C1 symmetry as follows:
C1
 O   8.0   0.10814498  -0.43784175  -0.74786718
 H   1.0  -0.01129308  -1.24839255  -0.24647088
 H   1.0  -0.12191113   0.26584065  -0.13585283
 O   8.0  -0.02010229  -4.26204388  -4.12481953
 H   1.0   0.16485027  -3.31957486  -4.11064257
 H   1.0  -0.79058448  -4.36975637  -3.56142666
 $END
