! Gamess input file generated by mol2mol.
 $CONTRL SCFTYP=RHF RUNTYP=GRADIENT MPLEVL=2 $END
 $SYSTEM MWORDS=500 MEMDDI=500 $END
-$CONTRL EXETYP=CHECK $END
 $CONTRL MAXIT=200 $END
-$STATPT OPTTOL=1.0E-5 $END
-$STATPT NSTEP=300 $END
-$DFT NTHE=36 NPHI=72 $END
 $SCF DIRSCF=.T. $END
 $BASIS GBASIS=N311 NGAUSS=6 NDFUNC=2 NPFUNC=2 DIFFSP=.T. DIFFS=.T. $END
 $GUESS GUESS=HUCKEL $END
 $DATA
--Cartesian coordinates with C1 symmetry as follows:
C1
 O   8.0  -0.03421267   0.32907870  -5.82449087
 H   1.0   0.38967623  -0.24803104  -6.46473991
 H   1.0  -0.68662280  -0.22488676  -5.38844088
 O   8.0   0.83268747   2.19377060  -8.75179389
 H   1.0   0.99680857   1.92141301  -9.65818338
 H   1.0  -0.01985317   2.63549247  -8.77848780
 $END
