! Gamess input file generated by mol2mol.
 $CONTRL SCFTYP=RHF RUNTYP=GRADIENT MPLEVL=2 $END
 $SYSTEM MWORDS=500 MEMDDI=500 $END
-$CONTRL EXETYP=CHECK $END
 $CONTRL MAXIT=200 $END
-$STATPT OPTTOL=1.0E-5 $END
-$STATPT NSTEP=300 $END
-$DFT NTHE=36 NPHI=72 $END
 $SCF DIRSCF=.T. $END
 $BASIS GBASIS=N311 NGAUSS=6 NDFUNC=2 NPFUNC=2 DIFFSP=.T. DIFFS=.T. $END
 $GUESS GUESS=HUCKEL $END
 $DATA
--Cartesian coordinates with C1 symmetry as follows:
C1
 O   8.0   0.53331321  -0.45776890  -1.54764118
 H   1.0   1.47951253  -0.41843310  -1.70831427
 H   1.0   0.42247855  -0.13079926  -0.65128030
 O   8.0  -0.21415568   5.27663118  -0.82294458
 H   1.0  -0.86701822   5.62656417  -0.21141068
 H   1.0  -0.72793901   4.89905790  -1.54136049
 $END
