! Gamess input file generated by mol2mol.
 $CONTRL SCFTYP=RHF RUNTYP=GRADIENT MPLEVL=2 $END
 $SYSTEM MWORDS=500 MEMDDI=500 $END
-$CONTRL EXETYP=CHECK $END
 $CONTRL MAXIT=200 $END
-$STATPT OPTTOL=1.0E-5 $END
-$STATPT NSTEP=300 $END
-$DFT NTHE=36 NPHI=72 $END
 $SCF DIRSCF=.T. $END
 $BASIS GBASIS=N311 NGAUSS=6 NDFUNC=2 NPFUNC=2 DIFFSP=.T. DIFFS=.T. $END
 $GUESS GUESS=HUCKEL $END
 $DATA
--Cartesian coordinates with C1 symmetry as follows:
C1
 O   8.0  -6.62085929  -2.58507803   1.91156699
 H   1.0  -6.57754282  -3.48600015   1.58123486
 H   1.0  -6.21840005  -2.05093645   1.22209209
 O   8.0  -5.49478388   0.57342865   5.81430202
 H   1.0  -5.93186467   1.20807395   6.38774952
 H   1.0  -5.39664823  -0.21657579   6.35181359
 $END
