! Gamess input file generated by mol2mol.
 $CONTRL SCFTYP=RHF RUNTYP=GRADIENT MPLEVL=2 $END
 $SYSTEM MWORDS=500 MEMDDI=500 $END
-$CONTRL EXETYP=CHECK $END
 $CONTRL MAXIT=200 $END
-$STATPT OPTTOL=1.0E-5 $END
-$STATPT NSTEP=300 $END
-$DFT NTHE=36 NPHI=72 $END
 $SCF DIRSCF=.T. $END
 $BASIS GBASIS=N311 NGAUSS=6 NDFUNC=2 NPFUNC=2 DIFFSP=.T. DIFFS=.T. $END
 $GUESS GUESS=HUCKEL $END
 $DATA
--Cartesian coordinates with C1 symmetry as follows:
C1
 O   8.0   2.05447255   2.11943461   3.94698324
 H   1.0   2.27404500   2.97535939   4.32359579
 H   1.0   2.89946970   1.73638288   3.69817109
 O   8.0   1.56306359   0.79959782   1.37860741
 H   1.0   1.90321799   0.04038104   0.89846039
 H   1.0   1.84402228   1.56115518   0.86504252
 $END
