! Gamess input file generated by mol2mol.
 $CONTRL SCFTYP=RHF RUNTYP=GRADIENT MPLEVL=2 $END
 $SYSTEM MWORDS=500 MEMDDI=500 $END
-$CONTRL EXETYP=CHECK $END
 $CONTRL MAXIT=200 $END
-$STATPT OPTTOL=1.0E-5 $END
-$STATPT NSTEP=300 $END
-$DFT NTHE=36 NPHI=72 $END
 $SCF DIRSCF=.T. $END
 $BASIS GBASIS=N311 NGAUSS=6 NDFUNC=2 NPFUNC=2 DIFFSP=.T. DIFFS=.T. $END
 $GUESS GUESS=HUCKEL $END
 $DATA
--Cartesian coordinates with C1 symmetry as follows:
C1
 O   8.0  -1.28118454   0.45039139   1.69602132
 H   1.0  -0.57628904  -0.18817416   1.56181004
 H   1.0  -1.60040364   0.28060454   2.58592463
 O   8.0  -4.23705772   0.02202572   0.44442726
 H   1.0  -4.16432046   0.81490203   0.98174724
 H   1.0  -5.18095095  -0.14193961   0.37487706
 $END
