! Gamess input file generated by mol2mol.
 $CONTRL SCFTYP=RHF RUNTYP=GRADIENT MPLEVL=2 $END
 $SYSTEM MWORDS=500 MEMDDI=500 $END
-$CONTRL EXETYP=CHECK $END
 $CONTRL MAXIT=200 $END
-$STATPT OPTTOL=1.0E-5 $END
-$STATPT NSTEP=300 $END
-$DFT NTHE=36 NPHI=72 $END
 $SCF DIRSCF=.T. $END
 $BASIS GBASIS=N311 NGAUSS=6 NDFUNC=2 NPFUNC=2 DIFFSP=.T. DIFFS=.T. $END
 $GUESS GUESS=HUCKEL $END
 $DATA
--Cartesian coordinates with C1 symmetry as follows:
C1
 O   8.0   0.52822506  -3.75772223   1.34861065
 H   1.0   0.16089862  -2.99809060   0.88960370
 H   1.0   0.00821103  -4.50499069   1.04229129
 O   8.0  -0.24328802  -0.42907165   3.42621667
 H   1.0  -0.04003108  -0.67500922   2.52020473
 H   1.0  -1.06727209  -0.88112777   3.62458960
 $END
