! Gamess input file generated by mol2mol.
 $CONTRL SCFTYP=RHF RUNTYP=GRADIENT MPLEVL=2 $END
 $SYSTEM MWORDS=500 MEMDDI=500 $END
-$CONTRL EXETYP=CHECK $END
 $CONTRL MAXIT=200 $END
-$STATPT OPTTOL=1.0E-5 $END
-$STATPT NSTEP=300 $END
-$DFT NTHE=36 NPHI=72 $END
 $SCF DIRSCF=.T. $END
 $BASIS GBASIS=N311 NGAUSS=6 NDFUNC=2 NPFUNC=2 DIFFSP=.T. DIFFS=.T. $END
 $GUESS GUESS=HUCKEL $END
 $DATA
--Cartesian coordinates with C1 symmetry as follows:
C1
 O   8.0  -0.55064443  -2.23619375   2.05790670
 H   1.0  -0.17113406  -1.46402645   1.63084016
 H   1.0  -0.15059883  -2.98604205   1.61030493
 O   8.0   0.91224550  -2.09093078   5.50927290
 H   1.0   0.36906980  -2.67852097   6.04064305
 H   1.0   1.59750548  -1.78192597   6.10726211
 $END
