! Gamess input file generated by mol2mol.
 $CONTRL SCFTYP=RHF RUNTYP=GRADIENT MPLEVL=2 $END
 $SYSTEM MWORDS=500 MEMDDI=500 $END
-$CONTRL EXETYP=CHECK $END
 $CONTRL MAXIT=200 $END
-$STATPT OPTTOL=1.0E-5 $END
-$STATPT NSTEP=300 $END
-$DFT NTHE=36 NPHI=72 $END
 $SCF DIRSCF=.T. $END
 $BASIS GBASIS=N311 NGAUSS=6 NDFUNC=2 NPFUNC=2 DIFFSP=.T. DIFFS=.T. $END
 $GUESS GUESS=HUCKEL $END
 $DATA
--Cartesian coordinates with C1 symmetry as follows:
C1
 O   8.0   2.92247116   2.02511347  -4.11866866
 H   1.0   2.74231357   1.22899896  -4.62502942
 H   1.0   2.87651348   2.73941468  -4.75922933
 O   8.0   5.14560465   5.86859001  -3.01401175
 H   1.0   4.91349531   5.82200872  -3.94493159
 H   1.0   4.35170974   6.18916903  -2.57856225
 $END
