! Gamess input file generated by mol2mol.
 $CONTRL SCFTYP=RHF RUNTYP=GRADIENT MPLEVL=2 $END
 $SYSTEM MWORDS=500 MEMDDI=500 $END
-$CONTRL EXETYP=CHECK $END
 $CONTRL MAXIT=200 $END
-$STATPT OPTTOL=1.0E-5 $END
-$STATPT NSTEP=300 $END
-$DFT NTHE=36 NPHI=72 $END
 $SCF DIRSCF=.T. $END
 $BASIS GBASIS=N311 NGAUSS=6 NDFUNC=2 NPFUNC=2 DIFFSP=.T. DIFFS=.T. $END
 $GUESS GUESS=HUCKEL $END
 $DATA
--Cartesian coordinates with C1 symmetry as follows:
C1
 O   8.0  -4.17216636   3.50269858  -0.95709041
 H   1.0  -4.12866080   3.93018444  -1.81617097
 H   1.0  -4.93404852   2.92019626  -1.01078325
 O   8.0  -2.68430659   6.45011773  -3.46418877
 H   1.0  -2.81198775   6.90721738  -4.29930178
 H   1.0  -2.60129430   7.14975929  -2.81129756
 $END
