! Gamess input file generated by mol2mol.
 $CONTRL SCFTYP=RHF RUNTYP=GRADIENT MPLEVL=2 $END
 $SYSTEM MWORDS=500 MEMDDI=500 $END
-$CONTRL EXETYP=CHECK $END
 $CONTRL MAXIT=200 $END
-$STATPT OPTTOL=1.0E-5 $END
-$STATPT NSTEP=300 $END
-$DFT NTHE=36 NPHI=72 $END
 $SCF DIRSCF=.T. $END
 $BASIS GBASIS=N311 NGAUSS=6 NDFUNC=2 NPFUNC=2 DIFFSP=.T. DIFFS=.T. $END
 $GUESS GUESS=HUCKEL $END
 $DATA
--Cartesian coordinates with C1 symmetry as follows:
C1
 O   8.0  -1.80103373  -0.95523277   6.37059768
 H   1.0  -1.96493743  -0.01750974   6.49892303
 H   1.0  -1.14046310  -0.99621247   5.67444870
 O   8.0  -0.63863418  -2.58632274   9.69151253
 H   1.0  -1.40440516  -3.13127175   9.88970862
 H   1.0  -0.99847533  -1.79882251   9.27556297
 $END
