! Gamess input file generated by mol2mol.
 $CONTRL SCFTYP=RHF RUNTYP=GRADIENT MPLEVL=2 $END
 $SYSTEM MWORDS=500 MEMDDI=500 $END
-$CONTRL EXETYP=CHECK $END
 $CONTRL MAXIT=200 $END
-$STATPT OPTTOL=1.0E-5 $END
-$STATPT NSTEP=300 $END
-$DFT NTHE=36 NPHI=72 $END
 $SCF DIRSCF=.T. $END
 $BASIS GBASIS=N311 NGAUSS=6 NDFUNC=2 NPFUNC=2 DIFFSP=.T. DIFFS=.T. $END
 $GUESS GUESS=HUCKEL $END
 $DATA
--Cartesian coordinates with C1 symmetry as follows:
C1
 O   8.0   0.63117575   0.94180666  -0.43483922
 H   1.0   0.20111098   1.40948888   0.28555924
 H   1.0   0.64431087   0.02221723  -0.15764064
 O   8.0   0.59345845   5.34630064  -0.19089905
 H   1.0   1.32369255   4.74686496  -0.36436754
 H   1.0   1.00474867   6.20566894  -0.06849486
 $END
