! Gamess input file generated by mol2mol.
 $CONTRL SCFTYP=RHF RUNTYP=GRADIENT MPLEVL=2 $END
 $SYSTEM MWORDS=500 MEMDDI=500 $END
-$CONTRL EXETYP=CHECK $END
 $CONTRL MAXIT=200 $END
-$STATPT OPTTOL=1.0E-5 $END
-$STATPT NSTEP=300 $END
-$DFT NTHE=36 NPHI=72 $END
 $SCF DIRSCF=.T. $END
 $BASIS GBASIS=N311 NGAUSS=6 NDFUNC=2 NPFUNC=2 DIFFSP=.T. DIFFS=.T. $END
 $GUESS GUESS=HUCKEL $END
 $DATA
--Cartesian coordinates with C1 symmetry as follows:
C1
 O   8.0  -0.27200336   0.19749019  -1.63296591
 H   1.0  -0.38964370   0.07482926  -0.68757110
 H   1.0   0.66594094   0.37291821  -1.74315574
 O   8.0   2.57236384   3.48840599  -2.02074439
 H   1.0   2.38158115   4.26019351  -2.55981979
 H   1.0   3.19681184   2.97475502  -2.53928435
 $END
