! Gamess input file generated by mol2mol.
 $CONTRL SCFTYP=RHF RUNTYP=GRADIENT MPLEVL=2 $END
 $SYSTEM MWORDS=500 MEMDDI=500 $END
-$CONTRL EXETYP=CHECK $END
 $CONTRL MAXIT=200 $END
-$STATPT OPTTOL=1.0E-5 $END
-$STATPT NSTEP=300 $END
-$DFT NTHE=36 NPHI=72 $END
 $SCF DIRSCF=.T. $END
 $BASIS GBASIS=N311 NGAUSS=6 NDFUNC=2 NPFUNC=2 DIFFSP=.T. DIFFS=.T. $END
 $GUESS GUESS=HUCKEL $END
 $DATA
--Cartesian coordinates with C1 symmetry as follows:
C1
 O   8.0  -0.02860089   0.53672603  -1.77375474
 H   1.0  -0.65551433  -0.19101417  -1.77923427
 H   1.0  -0.56774526   1.32620963  -1.86700334
 O   8.0   0.75936844  -2.53276340  -2.76135234
 H   1.0   0.90430270  -1.71670528  -2.27586339
 H   1.0   1.60945964  -2.73596993  -3.15973452
 $END
