! Gamess input file generated by mol2mol.
 $CONTRL SCFTYP=RHF RUNTYP=GRADIENT MPLEVL=2 $END
 $SYSTEM MWORDS=500 MEMDDI=500 $END
-$CONTRL EXETYP=CHECK $END
 $CONTRL MAXIT=200 $END
-$STATPT OPTTOL=1.0E-5 $END
-$STATPT NSTEP=300 $END
-$DFT NTHE=36 NPHI=72 $END
 $SCF DIRSCF=.T. $END
 $BASIS GBASIS=N311 NGAUSS=6 NDFUNC=2 NPFUNC=2 DIFFSP=.T. DIFFS=.T. $END
 $GUESS GUESS=HUCKEL $END
 $DATA
--Cartesian coordinates with C1 symmetry as follows:
C1
 O   8.0  -0.03819284   0.03337128  -0.02935377
 H   1.0  -0.49860649   0.80160266  -0.37647929
 H   1.0  -0.20653030  -0.66357920  -0.66855548
 O   8.0  -3.16972048   0.48565013   2.58203570
 H   1.0  -2.75703356  -0.32397776   2.27083081
 H   1.0  -2.59056350   0.80455371   3.27883841
 $END
