! Gamess input file generated by mol2mol.
 $CONTRL SCFTYP=RHF RUNTYP=GRADIENT MPLEVL=2 $END
 $SYSTEM MWORDS=500 MEMDDI=500 $END
-$CONTRL EXETYP=CHECK $END
 $CONTRL MAXIT=200 $END
-$STATPT OPTTOL=1.0E-5 $END
-$STATPT NSTEP=300 $END
-$DFT NTHE=36 NPHI=72 $END
 $SCF DIRSCF=.T. $END
 $BASIS GBASIS=N311 NGAUSS=6 NDFUNC=2 NPFUNC=2 DIFFSP=.T. DIFFS=.T. $END
 $GUESS GUESS=HUCKEL $END
 $DATA
--Cartesian coordinates with C1 symmetry as follows:
C1
 O   8.0   3.57050801  -2.41027260   6.11124467
 H   1.0   3.33769345  -3.26994832   6.47098254
 H   1.0   4.29887394  -2.58464619   5.50980205
 O   8.0   3.22651040   0.69436690   7.47314802
 H   1.0   3.42970152   0.09946080   8.19940995
 H   1.0   2.45993949   0.30569233   7.04424544
 $END
