! Gamess input file generated by mol2mol.
 $CONTRL SCFTYP=RHF RUNTYP=GRADIENT MPLEVL=2 $END
 $SYSTEM MWORDS=500 MEMDDI=500 $END
-$CONTRL EXETYP=CHECK $END
 $CONTRL MAXIT=200 $END
-$STATPT OPTTOL=1.0E-5 $END
-$STATPT NSTEP=300 $END
-$DFT NTHE=36 NPHI=72 $END
 $SCF DIRSCF=.T. $END
 $BASIS GBASIS=N311 NGAUSS=6 NDFUNC=2 NPFUNC=2 DIFFSP=.T. DIFFS=.T. $END
 $GUESS GUESS=HUCKEL $END
 $DATA
--Cartesian coordinates with C1 symmetry as follows:
C1
 O   8.0  -0.53053228   0.43426022  -0.68342399
 H   1.0   0.02667935  -0.30930150  -0.43993379
 H   1.0  -0.47569701   1.03703089   0.06244257
 O   8.0   2.57579291   0.94910436  -2.94468928
 H   1.0   3.04639086   0.63634822  -2.16791552
 H   1.0   3.08325268   1.70464024  -3.25178279
 $END
