! Gamess input file generated by mol2mol.
 $CONTRL SCFTYP=RHF RUNTYP=GRADIENT MPLEVL=2 $END
 $SYSTEM MWORDS=500 MEMDDI=500 $END
-$CONTRL EXETYP=CHECK $END
 $CONTRL MAXIT=200 $END
-$STATPT OPTTOL=1.0E-5 $END
-$STATPT NSTEP=300 $END
-$DFT NTHE=36 NPHI=72 $END
 $SCF DIRSCF=.T. $END
 $BASIS GBASIS=N311 NGAUSS=6 NDFUNC=2 NPFUNC=2 DIFFSP=.T. DIFFS=.T. $END
 $GUESS GUESS=HUCKEL $END
 $DATA
--Cartesian coordinates with C1 symmetry as follows:
C1
 O   8.0   3.72143048   0.88478361   2.25001632
 H   1.0   2.77736052   0.89092276   2.42707710
 H   1.0   3.80846621   0.45386788   1.39597140
 O   8.0   5.79122672  -0.27630056   3.58290729
 H   1.0   5.91841508  -1.17920476   3.88497256
 H   1.0   5.53300232  -0.35952830   2.66146842
 $END
