! Gamess input file generated by mol2mol.
 $CONTRL SCFTYP=RHF RUNTYP=GRADIENT MPLEVL=2 $END
 $SYSTEM MWORDS=500 MEMDDI=500 $END
-$CONTRL EXETYP=CHECK $END
 $CONTRL MAXIT=200 $END
-$STATPT OPTTOL=1.0E-5 $END
-$STATPT NSTEP=300 $END
-$DFT NTHE=36 NPHI=72 $END
 $SCF DIRSCF=.T. $END
 $BASIS GBASIS=N311 NGAUSS=6 NDFUNC=2 NPFUNC=2 DIFFSP=.T. DIFFS=.T. $END
 $GUESS GUESS=HUCKEL $END
 $DATA
--Cartesian coordinates with C1 symmetry as follows:
C1
 O   8.0  -4.55977019   2.40645206  -2.91987353
 H   1.0  -5.22229589   1.71344064  -2.86112678
 H   1.0  -4.25357871   2.37717926  -3.82984395
 O   8.0  -6.07597046   6.77468862  -4.02966270
 H   1.0  -6.77729363   7.18865128  -3.52031308
 H   1.0  -5.59899032   7.50577693  -4.43048203
 $END
