! Gamess input file generated by mol2mol.
 $CONTRL SCFTYP=RHF RUNTYP=GRADIENT MPLEVL=2 $END
 $SYSTEM MWORDS=500 MEMDDI=500 $END
-$CONTRL EXETYP=CHECK $END
 $CONTRL MAXIT=200 $END
-$STATPT OPTTOL=1.0E-5 $END
-$STATPT NSTEP=300 $END
-$DFT NTHE=36 NPHI=72 $END
 $SCF DIRSCF=.T. $END
 $BASIS GBASIS=N311 NGAUSS=6 NDFUNC=2 NPFUNC=2 DIFFSP=.T. DIFFS=.T. $END
 $GUESS GUESS=HUCKEL $END
 $DATA
--Cartesian coordinates with C1 symmetry as follows:
C1
 O   8.0   4.66416011  -0.93993195   4.84752377
 H   1.0   5.21145576  -0.39358009   4.27776644
 H   1.0   4.88329585  -1.84340664   4.60592635
 O   8.0   5.32028662  -3.54958123   8.09082591
 H   1.0   5.82354088  -4.08604932   7.47309341
 H   1.0   4.81608348  -2.94670066   7.53858455
 $END
