! Gamess input file generated by mol2mol.
 $CONTRL SCFTYP=RHF RUNTYP=GRADIENT MPLEVL=2 $END
 $SYSTEM MWORDS=500 MEMDDI=500 $END
-$CONTRL EXETYP=CHECK $END
 $CONTRL MAXIT=200 $END
-$STATPT OPTTOL=1.0E-5 $END
-$STATPT NSTEP=300 $END
-$DFT NTHE=36 NPHI=72 $END
 $SCF DIRSCF=.T. $END
 $BASIS GBASIS=N311 NGAUSS=6 NDFUNC=2 NPFUNC=2 DIFFSP=.T. DIFFS=.T. $END
 $GUESS GUESS=HUCKEL $END
 $DATA
--Cartesian coordinates with C1 symmetry as follows:
C1
 O   8.0  -1.25571216  -0.51108728  -3.97435252
 H   1.0  -1.73834939   0.30769154  -4.11334484
 H   1.0  -1.93352903  -1.18936714  -3.91816520
 O   8.0  -1.08283447  -0.62615434  -0.04506562
 H   1.0  -1.29337897   0.27987280  -0.28473649
 H   1.0  -0.30099607  -0.84119302  -0.55998638
 $END
