! Gamess input file generated by mol2mol.
 $CONTRL SCFTYP=RHF RUNTYP=GRADIENT MPLEVL=2 $END
 $SYSTEM MWORDS=500 MEMDDI=500 $END
-$CONTRL EXETYP=CHECK $END
 $CONTRL MAXIT=200 $END
-$STATPT OPTTOL=1.0E-5 $END
-$STATPT NSTEP=300 $END
-$DFT NTHE=36 NPHI=72 $END
 $SCF DIRSCF=.T. $END
 $BASIS GBASIS=N311 NGAUSS=6 NDFUNC=2 NPFUNC=2 DIFFSP=.T. DIFFS=.T. $END
 $GUESS GUESS=HUCKEL $END
 $DATA
--Cartesian coordinates with C1 symmetry as follows:
C1
 O   8.0   5.10391300  -0.11587660   3.97607998
 H   1.0   5.50431168   0.50975934   3.36705054
 H   1.0   4.43127927   0.38902084   4.44008295
 O   8.0   6.82286881  -2.46921991   0.63555399
 H   1.0   5.96782232  -2.44792981   0.19840580
 H   1.0   6.72261554  -1.89565955   1.39951347
 $END
