! Gamess input file generated by mol2mol.
 $CONTRL SCFTYP=RHF RUNTYP=GRADIENT MPLEVL=2 $END
 $SYSTEM MWORDS=500 MEMDDI=500 $END
-$CONTRL EXETYP=CHECK $END
 $CONTRL MAXIT=200 $END
-$STATPT OPTTOL=1.0E-5 $END
-$STATPT NSTEP=300 $END
-$DFT NTHE=36 NPHI=72 $END
 $SCF DIRSCF=.T. $END
 $BASIS GBASIS=N311 NGAUSS=6 NDFUNC=2 NPFUNC=2 DIFFSP=.T. DIFFS=.T. $END
 $GUESS GUESS=HUCKEL $END
 $DATA
--Cartesian coordinates with C1 symmetry as follows:
C1
 O   8.0   1.30152084  -1.40569934   1.01284340
 H   1.0   1.45981254  -2.27588273   1.38751780
 H   1.0   1.08206191  -0.85040604   1.76526844
 O   8.0   3.10238183  -4.36867325  -2.88091334
 H   1.0   3.32117528  -3.46639429  -3.12724319
 H   1.0   2.29760058  -4.29343508  -2.36195028
 $END
