! Gamess input file generated by mol2mol.
 $CONTRL SCFTYP=RHF RUNTYP=GRADIENT MPLEVL=2 $END
 $SYSTEM MWORDS=500 MEMDDI=500 $END
-$CONTRL EXETYP=CHECK $END
 $CONTRL MAXIT=200 $END
-$STATPT OPTTOL=1.0E-5 $END
-$STATPT NSTEP=300 $END
-$DFT NTHE=36 NPHI=72 $END
 $SCF DIRSCF=.T. $END
 $BASIS GBASIS=N311 NGAUSS=6 NDFUNC=2 NPFUNC=2 DIFFSP=.T. DIFFS=.T. $END
 $GUESS GUESS=HUCKEL $END
 $DATA
--Cartesian coordinates with C1 symmetry as follows:
C1
 O   8.0   0.41317174   5.43634041  -0.87857665
 H   1.0   0.44391331   5.92866606  -1.70278943
 H   1.0  -0.51815491   5.24585980  -0.74072122
 O   8.0   3.91772659   6.52309587  -3.42526203
 H   1.0   4.75075807   6.99495299  -3.34737926
 H   1.0   3.69521375   6.26736617  -2.52651476
 $END
