! Gamess input file generated by mol2mol.
 $CONTRL SCFTYP=RHF RUNTYP=GRADIENT MPLEVL=2 $END
 $SYSTEM MWORDS=500 MEMDDI=500 $END
-$CONTRL EXETYP=CHECK $END
 $CONTRL MAXIT=200 $END
-$STATPT OPTTOL=1.0E-5 $END
-$STATPT NSTEP=300 $END
-$DFT NTHE=36 NPHI=72 $END
 $SCF DIRSCF=.T. $END
 $BASIS GBASIS=N311 NGAUSS=6 NDFUNC=2 NPFUNC=2 DIFFSP=.T. DIFFS=.T. $END
 $GUESS GUESS=HUCKEL $END
 $DATA
--Cartesian coordinates with C1 symmetry as follows:
C1
 O   8.0   0.05363767  -0.25209591   0.15528084
 H   1.0   0.91020625   0.16013452   0.01739451
 H   1.0  -0.15171802  -0.08888067   1.07931879
 O   8.0   4.09133553   2.78699119   0.91458521
 H   1.0   3.81741226   3.65506763   1.22128643
 H   1.0   3.90069610   2.78755523  -0.02685656
 $END
