! Gamess input file generated by mol2mol.
 $CONTRL SCFTYP=RHF RUNTYP=GRADIENT MPLEVL=2 $END
 $SYSTEM MWORDS=500 MEMDDI=500 $END
-$CONTRL EXETYP=CHECK $END
 $CONTRL MAXIT=200 $END
-$STATPT OPTTOL=1.0E-5 $END
-$STATPT NSTEP=300 $END
-$DFT NTHE=36 NPHI=72 $END
 $SCF DIRSCF=.T. $END
 $BASIS GBASIS=N311 NGAUSS=6 NDFUNC=2 NPFUNC=2 DIFFSP=.T. DIFFS=.T. $END
 $GUESS GUESS=HUCKEL $END
 $DATA
--Cartesian coordinates with C1 symmetry as follows:
C1
 O   8.0   3.20648793  -0.98232431  -3.49737188
 H   1.0   2.60193560  -1.69602908  -3.71600006
 H   1.0   2.89662068  -0.23189237  -4.01068514
 O   8.0   1.46709756   4.19733047  -5.10514297
 H   1.0   0.72158213   3.96141554  -5.66300244
 H   1.0   1.15332782   4.06538475  -4.20692519
 $END
