! Gamess input file generated by mol2mol.
 $CONTRL SCFTYP=RHF RUNTYP=GRADIENT MPLEVL=2 $END
 $SYSTEM MWORDS=500 MEMDDI=500 $END
-$CONTRL EXETYP=CHECK $END
 $CONTRL MAXIT=200 $END
-$STATPT OPTTOL=1.0E-5 $END
-$STATPT NSTEP=300 $END
-$DFT NTHE=36 NPHI=72 $END
 $SCF DIRSCF=.T. $END
 $BASIS GBASIS=N311 NGAUSS=6 NDFUNC=2 NPFUNC=2 DIFFSP=.T. DIFFS=.T. $END
 $GUESS GUESS=HUCKEL $END
 $DATA
--Cartesian coordinates with C1 symmetry as follows:
C1
 O   8.0  -0.18539216   0.85345465  -0.33013156
 H   1.0   0.14184453   0.04715860   0.07663514
 H   1.0  -0.14886746   1.51288299   0.36734712
 O   8.0  -0.74570793   4.60241345   0.31470164
 H   1.0  -0.39097203   3.74494381   0.56282372
 H   1.0  -1.65218132   4.42616571   0.05031737
 $END
