! Gamess input file generated by mol2mol.
 $CONTRL SCFTYP=RHF RUNTYP=GRADIENT MPLEVL=2 $END
 $SYSTEM MWORDS=500 MEMDDI=500 $END
-$CONTRL EXETYP=CHECK $END
 $CONTRL MAXIT=200 $END
-$STATPT OPTTOL=1.0E-5 $END
-$STATPT NSTEP=300 $END
-$DFT NTHE=36 NPHI=72 $END
 $SCF DIRSCF=.T. $END
 $BASIS GBASIS=N311 NGAUSS=6 NDFUNC=2 NPFUNC=2 DIFFSP=.T. DIFFS=.T. $END
 $GUESS GUESS=HUCKEL $END
 $DATA
--Cartesian coordinates with C1 symmetry as follows:
C1
 O   8.0   0.34229494   0.12164283  -0.21287818
 H   1.0   1.21070199   0.48390350  -0.40599139
 H   1.0   0.51599552  -0.67891236   0.28871508
 O   8.0   3.66812166  -0.52707273  -0.26898504
 H   1.0   3.33547647  -1.10316765  -0.96189060
 H   1.0   3.40852867   0.35740877  -0.53909659
 $END
