! Gamess input file generated by mol2mol.
 $CONTRL SCFTYP=RHF RUNTYP=GRADIENT MPLEVL=2 $END
 $SYSTEM MWORDS=500 MEMDDI=500 $END
-$CONTRL EXETYP=CHECK $END
 $CONTRL MAXIT=200 $END
-$STATPT OPTTOL=1.0E-5 $END
-$STATPT NSTEP=300 $END
-$DFT NTHE=36 NPHI=72 $END
 $SCF DIRSCF=.T. $END
 $BASIS GBASIS=N311 NGAUSS=6 NDFUNC=2 NPFUNC=2 DIFFSP=.T. DIFFS=.T. $END
 $GUESS GUESS=HUCKEL $END
 $DATA
--Cartesian coordinates with C1 symmetry as follows:
C1
 O   8.0   0.86198869  -4.75952187   4.88052373
 H   1.0   1.23757240  -4.33410531   4.10553087
 H   1.0   0.72565344  -5.67322922   4.61744982
 O   8.0  -0.75955492  -0.85700365   8.98010604
 H   1.0  -0.16803904  -1.26474574   9.61768870
 H   1.0  -0.40149561  -1.09975217   8.12247967
 $END
